p cnf 340 139
1 2 3 4 5 6 7 8 9 10 11 12 13 0
-1 -2 0
-1 -3 0
-1 -4 0
-1 -5 0
-1 -6 0
-1 -7 0
-1 -8 0
-1 -9 0
-1 -10 0
-1 -11 0
-1 -12 0
-1 -13 0
-2 -3 0
-2 -4 0
-2 -5 0
-2 -6 0
-2 -7 0
-2 -8 0
-2 -9 0
-2 -10 0
-2 -11 0
-2 -12 0
-2 -13 0
-3 -4 0
-3 -5 0
-3 -6 0
-3 -7 0
-3 -8 0
-3 -9 0
-3 -10 0
-3 -11 0
-3 -12 0
-3 -13 0
-4 -5 0
-4 -6 0
-4 -7 0
-4 -8 0
-4 -9 0
-4 -10 0
-4 -11 0
-4 -12 0
-4 -13 0
-5 -6 0
-5 -7 0
-5 -8 0
-5 -9 0
-5 -10 0
-5 -11 0
-5 -12 0
-5 -13 0
-6 -7 0
-6 -8 0
-6 -9 0
-6 -10 0
-6 -11 0
-6 -12 0
-6 -13 0
-7 -8 0
-7 -9 0
-7 -10 0
-7 -11 0
-7 -12 0
-7 -13 0
-8 -9 0
-8 -10 0
-8 -11 0
-8 -12 0
-8 -13 0
-9 -10 0
-9 -11 0
-9 -12 0
-9 -13 0
-10 -11 0
-10 -12 0
-10 -13 0
-11 -12 0
-11 -13 0
-12 -13 0
0 20 40 60 80 100 120 140 160 180 200 220 240 0
13 33 53 73 93 113 133 153 173 193 213 233 253 0
26 46 66 86 106 126 146 166 186 206 226 246 266 0
39 59 79 99 119 139 159 179 199 219 239 259 279 0
1 21 41 61 81 101 121 141 161 181 201 221 241 0
14 34 54 74 94 114 134 154 174 194 214 234 254 0
27 47 67 87 107 127 147 167 187 207 227 247 267 0
40 60 80 100 120 140 160 180 200 220 240 260 280 0
2 22 42 62 82 102 122 142 162 182 202 222 242 0
15 35 55 75 95 115 135 155 175 195 215 235 255 0
28 48 68 88 108 128 148 168 188 208 228 248 268 0
41 61 81 101 121 141 161 181 201 221 241 261 281 0
3 23 43 63 83 103 123 143 163 183 203 223 243 0
16 36 56 76 96 116 136 156 176 196 216 236 256 0
29 49 69 89 109 129 149 169 189 209 229 249 269 0
42 62 82 102 122 142 162 182 202 222 242 262 282 0
4 24 44 64 84 104 124 144 164 184 204 224 244 0
17 37 57 77 97 117 137 157 177 197 217 237 257 0
30 50 70 90 110 130 150 170 190 210 230 250 270 0
43 63 83 103 123 143 163 183 203 223 243 263 283 0
12 13 0
-12 -13 0
25 26 0
-25 -26 0
38 39 0
-38 -39 0
51 52 0
-51 -52 0
32 33 0
-32 -33 0
45 46 0
-45 -46 0
58 59 0
-58 -59 0
71 72 0
-71 -72 0
52 53 0
-52 -53 0
65 66 0
-65 -66 0
78 79 0
-78 -79 0
91 92 0
-91 -92 0
72 73 0
-72 -73 0
85 86 0
-85 -86 0
98 99 0
-98 -99 0
111 112 0
-111 -112 0
92 93 0
-92 -93 0
105 106 0
-105 -106 0
118 119 0
-118 -119 0
131 132 0
-131 -132 0
